objective value:                    0.999966236366061
h-1,10                                           0.05 	(obj:0)
h-1,26                                           0.05 	(obj:0)
h-1,34                                           0.05 	(obj:0)
h-1,35                                           0.05 	(obj:0)
h-1,36                                           0.05 	(obj:0)
h-1,38                                           0.05 	(obj:0)
h-1,43                                           0.05 	(obj:0)
h-1,44                                           0.05 	(obj:0)
h-1,45                                           0.05 	(obj:0)
h-1,46                                           0.05 	(obj:0)
h-1,47                                           0.05 	(obj:0)
h-1,48                                           0.05 	(obj:0)
h-1,49                                           0.05 	(obj:0)
h-1,59                                           0.05 	(obj:0)
h-1,61                                           0.05 	(obj:0)
h-1,62                                           0.05 	(obj:0)
h-1,63                                           0.05 	(obj:0)
h-1,64                                           0.05 	(obj:0)
h-1,65                                           0.05 	(obj:0)
h-1,66                                           0.05 	(obj:0)
h-1,68                                           0.05 	(obj:0)
h-1,71                            0.00464056544423922 	(obj:0)
h-1,72                                           0.05 	(obj:0)
h-1,73                                           0.05 	(obj:0)
h-1,74                                           0.05 	(obj:0)
h-1,75                                           0.05 	(obj:0)
h-1,76                                           0.05 	(obj:0)
h-1,79                                           0.05 	(obj:0)
h-1,80                                           0.05 	(obj:0)
h-1,81                                           0.05 	(obj:0)
h-1,87                                           0.05 	(obj:0)
h-1,88                                           0.05 	(obj:0)
h-1,89                                           0.05 	(obj:0)
h-1,92                                           0.05 	(obj:0)
h-1,97                                           0.05 	(obj:0)
h-1,105                                          0.05 	(obj:0)
h-1,108                                          0.05 	(obj:0)
h-1,113                                          0.05 	(obj:0)
h-1,115                                          0.05 	(obj:0)
h-1,116                                          0.05 	(obj:0)
h-1,117                                          0.05 	(obj:0)
h-1,120                                          0.05 	(obj:0)
h-1,121                                          0.05 	(obj:0)
h-1,125                                          0.05 	(obj:0)
h-1,128                            0.0990196138620377 	(obj:0)
h-1,129                                             1 	(obj:0)
h-1,130                             0.377450984716415 	(obj:0)
h-1,132                                          0.05 	(obj:0)
h-1,133                                          0.05 	(obj:0)
h-1,137                                          0.05 	(obj:0)
h-1,143                                          0.05 	(obj:0)
h-1,146                                          0.05 	(obj:0)
h-1,150                                          0.05 	(obj:0)
h-1,151                                          0.05 	(obj:0)
h-1,152                                          0.05 	(obj:0)
h-1,153                                          0.05 	(obj:0)
h-1,154                                          0.05 	(obj:0)
h-1,155                                          0.05 	(obj:0)
h-1,156                             0.391176480054855 	(obj:0)
h-1,157                                             1 	(obj:0)
h-1,158                             0.371568638086319 	(obj:0)
h-1,164                                          0.05 	(obj:0)
h-1,171                                          0.05 	(obj:0)
h-1,173                                          0.05 	(obj:0)
h-1,180                                          0.05 	(obj:0)
h-1,182                                          0.05 	(obj:0)
h-1,183                                          0.05 	(obj:0)
h-1,184                             0.579411792755127 	(obj:0)
h-1,185                             0.995098042488098 	(obj:0)
h-1,186                                          0.05 	(obj:0)
h-1,187                                          0.05 	(obj:0)
h-1,188                                          0.05 	(obj:0)
h-1,190                                          0.05 	(obj:0)
h-1,191                                          0.05 	(obj:0)
h-1,195                                          0.05 	(obj:0)
h-1,197                                          0.05 	(obj:0)
h-1,198                                          0.05 	(obj:0)
h-1,200                                          0.05 	(obj:0)
h-1,202                                          0.05 	(obj:0)
h-1,203                                          0.05 	(obj:0)
h-1,204                                          0.05 	(obj:0)
h-1,205                                          0.05 	(obj:0)
h-1,207                                          0.05 	(obj:0)
h-1,209                                          0.05 	(obj:0)
h-1,211                             0.226470592617989 	(obj:0)
h-1,212                              0.90686274766922 	(obj:0)
h-1,213                             0.538235318660736 	(obj:0)
h-1,215                                          0.05 	(obj:0)
h-1,217                                          0.05 	(obj:0)
h-1,219                                          0.05 	(obj:0)
h-1,223                                          0.05 	(obj:0)
h-1,224                                          0.05 	(obj:0)
h-1,233                                          0.05 	(obj:0)
h-1,234                                          0.05 	(obj:0)
h-1,235                                          0.05 	(obj:0)
h-1,236                                          0.05 	(obj:0)
h-1,238                                          0.05 	(obj:0)
h-1,239                             0.379411774873734 	(obj:0)
h-1,240                                             1 	(obj:0)
h-1,241                              0.29705882370472 	(obj:0)
h-1,244                                          0.05 	(obj:0)
h-1,247                                          0.05 	(obj:0)
h-1,248                                          0.05 	(obj:0)
h-1,252                                          0.05 	(obj:0)
h-1,253                                          0.05 	(obj:0)
h-1,257                                          0.05 	(obj:0)
h-1,259                                          0.05 	(obj:0)
h-1,262                                          0.05 	(obj:0)
h-1,266                                          0.05 	(obj:0)
h-1,267                             0.742156875133514 	(obj:0)
h-1,268                             0.924509811401367 	(obj:0)
h-1,269                            0.0931372560560703 	(obj:0)
h-1,271                                          0.05 	(obj:0)
h-1,272                                          0.05 	(obj:0)
h-1,273                                          0.05 	(obj:0)
h-1,275                                          0.05 	(obj:0)
h-1,278                             0.037136715967126 	(obj:0)
h-1,279                                          0.05 	(obj:0)
h-1,280                                          0.05 	(obj:0)
h-1,281                                          0.05 	(obj:0)
h-1,285                                          0.05 	(obj:0)
h-1,286                                          0.05 	(obj:0)
h-1,289                                          0.05 	(obj:0)
h-1,291                                          0.05 	(obj:0)
h-1,292                                          0.05 	(obj:0)
h-1,294                             0.075490203499794 	(obj:0)
h-1,295                             0.946078431606293 	(obj:0)
h-1,296                             0.897058832645416 	(obj:0)
h-1,299                                          0.05 	(obj:0)
h-1,301                                          0.05 	(obj:0)
h-1,303                                          0.05 	(obj:0)
h-1,304                                          0.05 	(obj:0)
h-1,305                                          0.05 	(obj:0)
h-1,308                                          0.05 	(obj:0)
h-1,309                                          0.05 	(obj:0)
h-1,313                                          0.05 	(obj:0)
h-1,322                             0.322549027204514 	(obj:0)
h-1,323                             0.946078431606293 	(obj:0)
h-1,324                             0.714705896377563 	(obj:0)
h-1,327                                          0.05 	(obj:0)
h-1,330                                          0.05 	(obj:0)
h-1,332                                          0.05 	(obj:0)
h-1,333                                          0.05 	(obj:0)
h-1,336                                          0.05 	(obj:0)
h-1,341                                          0.05 	(obj:0)
h-1,348                                          0.05 	(obj:0)
h-1,350                             0.499019634723663 	(obj:0)
h-1,351                             0.946078431606293 	(obj:0)
h-1,352                             0.251960796117783 	(obj:0)
h-1,357                                          0.05 	(obj:0)
h-1,358                                          0.05 	(obj:0)
h-1,359                                          0.05 	(obj:0)
h-1,360                                          0.05 	(obj:0)
h-1,361                                          0.05 	(obj:0)
h-1,362                                          0.05 	(obj:0)
h-1,364                                          0.05 	(obj:0)
h-1,365                                          0.05 	(obj:0)
h-1,373                                          0.05 	(obj:0)
h-1,374                                          0.05 	(obj:0)
h-1,377                             0.173529413342476 	(obj:0)
h-1,378                             0.879411768913269 	(obj:0)
h-1,379                             0.753921580314636 	(obj:0)
h-1,386                                          0.05 	(obj:0)
h-1,387                                          0.05 	(obj:0)
h-1,388                                          0.05 	(obj:0)
h-1,389                                          0.05 	(obj:0)
h-1,390                                          0.05 	(obj:0)
h-1,397                                          0.05 	(obj:0)
h-1,399                                          0.05 	(obj:0)
h-1,401                                          0.05 	(obj:0)
h-1,403                                          0.05 	(obj:0)
h-1,405                             0.436274510622025 	(obj:0)
h-1,406                                          0.95 	(obj:0)
h-1,407                             0.597058844566345 	(obj:0)
h-1,413                                          0.05 	(obj:0)
h-1,417                                          0.05 	(obj:0)
h-1,418                                          0.05 	(obj:0)
h-1,422                                          0.05 	(obj:0)
h-1,424                                          0.05 	(obj:0)
h-1,425                                          0.05 	(obj:0)
h-1,426                                          0.05 	(obj:0)
h-1,427                                          0.05 	(obj:0)
h-1,428                                          0.05 	(obj:0)
h-1,429                                          0.05 	(obj:0)
h-1,430                                          0.05 	(obj:0)
h-1,433                             0.620588254928589 	(obj:0)
h-1,434                             0.946078431606293 	(obj:0)
h-1,435                             0.267647069692612 	(obj:0)
h-1,436                                          0.05 	(obj:0)
h-1,444                                          0.05 	(obj:0)
h-1,445                                          0.05 	(obj:0)
h-1,446                                          0.05 	(obj:0)
h-1,447                                          0.05 	(obj:0)
h-1,449                                          0.05 	(obj:0)
h-1,450                                          0.05 	(obj:0)
h-1,452                                          0.05 	(obj:0)
h-1,454                                          0.05 	(obj:0)
h-1,455                                          0.05 	(obj:0)
h-1,457                                          0.05 	(obj:0)
h-1,458                                          0.05 	(obj:0)
h-1,460                             0.144117648899555 	(obj:0)
h-1,461                             0.859803926944733 	(obj:0)
h-1,462                             0.793137264251709 	(obj:0)
h-1,469                                          0.05 	(obj:0)
h-1,470                                          0.05 	(obj:0)
h-1,471                                          0.05 	(obj:0)
h-1,472                                          0.05 	(obj:0)
h-1,474                                          0.05 	(obj:0)
h-1,475                                          0.05 	(obj:0)
h-1,477                                          0.05 	(obj:0)
h-1,478                                          0.05 	(obj:0)
h-1,480                                          0.05 	(obj:0)
h-1,481                                          0.05 	(obj:0)
h-1,482                                          0.05 	(obj:0)
h-1,484                                          0.05 	(obj:0)
h-1,486                                          0.05 	(obj:0)
h-1,487                                          0.05 	(obj:0)
h-1,488                             0.420588237047195 	(obj:0)
h-1,489                             0.946078431606293 	(obj:0)
h-1,490                             0.573529434204102 	(obj:0)
h-1,493                                          0.05 	(obj:0)
h-1,494                                          0.05 	(obj:0)
h-1,495                                          0.05 	(obj:0)
h-1,496                                          0.05 	(obj:0)
h-1,499                                          0.05 	(obj:0)
h-1,500                                          0.05 	(obj:0)
h-1,503                                          0.05 	(obj:0)
h-1,506                                          0.05 	(obj:0)
h-1,508                                          0.05 	(obj:0)
h-1,509                                          0.05 	(obj:0)
h-1,511                                          0.05 	(obj:0)
h-1,512                                          0.05 	(obj:0)
h-1,513                                          0.05 	(obj:0)
h-1,514                                          0.05 	(obj:0)
h-1,515                                          0.05 	(obj:0)
h-1,516                             0.642156887054443 	(obj:0)
h-1,517                             0.946078431606293 	(obj:0)
h-1,518                             0.506862771511078 	(obj:0)
h-1,519                                          0.05 	(obj:0)
h-1,520                                          0.05 	(obj:0)
h-1,521                                          0.05 	(obj:0)
h-1,522                                          0.05 	(obj:0)
h-1,523                                          0.05 	(obj:0)
h-1,524                                          0.05 	(obj:0)
h-1,525                                          0.05 	(obj:0)
h-1,526                                          0.05 	(obj:0)
h-1,527                                          0.05 	(obj:0)
h-1,528                                          0.05 	(obj:0)
h-1,530                                          0.05 	(obj:0)
h-1,531                                          0.05 	(obj:0)
h-1,532                                          0.05 	(obj:0)
h-1,533                                          0.05 	(obj:0)
h-1,536                                          0.05 	(obj:0)
h-1,537                                          0.05 	(obj:0)
h-1,538                                          0.05 	(obj:0)
h-1,539                                          0.05 	(obj:0)
h-1,540                                          0.05 	(obj:0)
h-1,541                                          0.05 	(obj:0)
h-1,542                                          0.05 	(obj:0)
h-1,543                                          0.05 	(obj:0)
h-1,544                             0.944117653369904 	(obj:0)
h-1,545                                             1 	(obj:0)
h-1,546                             0.308823543787003 	(obj:0)
h-1,548                                          0.05 	(obj:0)
h-1,549                                          0.05 	(obj:0)
h-1,550                                          0.05 	(obj:0)
h-1,551                                          0.05 	(obj:0)
h-1,552                                          0.05 	(obj:0)
h-1,554                                          0.05 	(obj:0)
h-1,555                                          0.05 	(obj:0)
h-1,556                                          0.05 	(obj:0)
h-1,558                                          0.05 	(obj:0)
h-1,561                                          0.05 	(obj:0)
h-1,562                                          0.05 	(obj:0)
h-1,563                                          0.05 	(obj:0)
h-1,564                                          0.05 	(obj:0)
h-1,565                                          0.05 	(obj:0)
h-1,566                                          0.05 	(obj:0)
h-1,567                                          0.05 	(obj:0)
h-1,568                                          0.05 	(obj:0)
h-1,569                                          0.05 	(obj:0)
h-1,570                                          0.05 	(obj:0)
h-1,571                             0.289215686917305 	(obj:0)
h-1,572                                             1 	(obj:0)
h-1,573                                             1 	(obj:0)
h-1,574                             0.208823543787003 	(obj:0)
h-1,575                                          0.05 	(obj:0)
h-1,576                                          0.05 	(obj:0)
h-1,577                                          0.05 	(obj:0)
h-1,578                                          0.05 	(obj:0)
h-1,579                                          0.05 	(obj:0)
h-1,580                                          0.05 	(obj:0)
h-1,581                                          0.05 	(obj:0)
h-1,582                                          0.05 	(obj:0)
h-1,583                                          0.05 	(obj:0)
h-1,584                                          0.05 	(obj:0)
h-1,586                                          0.05 	(obj:0)
h-1,588                                          0.05 	(obj:0)
h-1,591                                          0.05 	(obj:0)
h-1,593                                          0.05 	(obj:0)
h-1,594                                          0.05 	(obj:0)
h-1,595                                          0.05 	(obj:0)
h-1,596                                          0.05 	(obj:0)
h-1,597                                          0.05 	(obj:0)
h-1,598                                          0.05 	(obj:0)
h-1,599                             0.602941203117371 	(obj:0)
h-1,600                                             1 	(obj:0)
h-1,601                             0.853921580314636 	(obj:0)
h-1,602                            0.0617647061124444 	(obj:0)
h-1,603                                          0.05 	(obj:0)
h-1,604                                          0.05 	(obj:0)
h-1,605                                          0.05 	(obj:0)
h-1,606                                          0.05 	(obj:0)
h-1,607                                          0.05 	(obj:0)
h-1,608                                          0.05 	(obj:0)
h-1,609                                          0.05 	(obj:0)
h-1,610                                          0.05 	(obj:0)
h-1,611                                          0.05 	(obj:0)
h-1,614                                          0.05 	(obj:0)
h-1,615                                          0.05 	(obj:0)
h-1,616                                          0.05 	(obj:0)
h-1,617                                          0.05 	(obj:0)
h-1,619                                          0.05 	(obj:0)
h-1,621                                          0.05 	(obj:0)
h-1,622                                          0.05 	(obj:0)
h-1,623                                          0.05 	(obj:0)
h-1,624                                          0.05 	(obj:0)
h-1,625                                          0.05 	(obj:0)
h-1,626                            0.0892156876623631 	(obj:0)
h-1,627                             0.893137264251709 	(obj:0)
h-1,628                                             1 	(obj:0)
h-1,629                             0.524509805440903 	(obj:0)
h-1,630                                          0.05 	(obj:0)
h-1,632                                          0.05 	(obj:0)
h-1,633                                          0.05 	(obj:0)
h-1,634                                          0.05 	(obj:0)
h-1,635                                          0.05 	(obj:0)
h-1,636                                          0.05 	(obj:0)
h-1,637                                          0.05 	(obj:0)
h-1,638                                          0.05 	(obj:0)
h-1,639                                          0.05 	(obj:0)
h-1,640                                          0.05 	(obj:0)
h-1,641                                          0.05 	(obj:0)
h-1,643                                          0.05 	(obj:0)
h-1,646                                          0.05 	(obj:0)
h-1,647                                          0.05 	(obj:0)
h-1,649                                          0.05 	(obj:0)
h-1,650                                          0.05 	(obj:0)
h-1,651                                          0.05 	(obj:0)
h-1,652                                          0.05 	(obj:0)
h-1,653                                          0.05 	(obj:0)
h-1,654                            0.0696078438311815 	(obj:0)
h-1,655                             0.826470601558685 	(obj:0)
h-1,656                             0.740196096897125 	(obj:0)
h-1,657                            0.0892156876623631 	(obj:0)
h-1,658                                          0.05 	(obj:0)
h-1,659                                          0.05 	(obj:0)
h-1,660                                          0.05 	(obj:0)
h-1,664                                          0.05 	(obj:0)
h-1,665                                          0.05 	(obj:0)
h-1,666                                          0.05 	(obj:0)
h-1,667                                          0.05 	(obj:0)
h-1,668                                          0.05 	(obj:0)
h-1,669                                          0.05 	(obj:0)
h-1,673                                          0.05 	(obj:0)
h-1,674                                          0.05 	(obj:0)
h-1,675                                          0.05 	(obj:0)
h-1,680                                          0.05 	(obj:0)
h-1,681                                          0.05 	(obj:0)
h-1,683                                          0.05 	(obj:0)
h-1,684                                          0.05 	(obj:0)
h-1,685                                          0.05 	(obj:0)
h-1,686                                          0.05 	(obj:0)
h-1,688                                          0.05 	(obj:0)
h-1,690                                          0.05 	(obj:0)
h-1,694                                          0.05 	(obj:0)
h-1,697                                          0.05 	(obj:0)
h-1,726                                          0.05 	(obj:0)
h-1,732                                          0.05 	(obj:0)
h-1,750                                          0.05 	(obj:0)
h-1,752                                          0.05 	(obj:0)
h-1,753                                          0.05 	(obj:0)
h-1,767                                          0.05 	(obj:0)
h-1,770                                          0.05 	(obj:0)
h-1,774                                          0.05 	(obj:0)
h-1,775                                          0.05 	(obj:0)
z0,0                                 -22.695425791775 	(obj:0)
z0,1                                   20.38547310582 	(obj:0)
a0,1                                      1.000000001 	(obj:0)
z0,2                                 8.35115229036106 	(obj:0)
a0,2                                0.999763931463634 	(obj:0)
z0,3                                -6.51231909722389 	(obj:0)
a0,3                              0.00148282980041703 	(obj:0)
z0,4                                 18.6369070662637 	(obj:0)
a0,4                                                1 	(obj:0)
z1,0                                -13.5819237309688 	(obj:0)
a1,0                             1.36703648401237e-09 	(obj:0)
z1,1                                 -15.665296813766 	(obj:0)
z1,2                                 10.2579138500753 	(obj:0)
a1,2                                0.999966235366061 	(obj:1)
z1,3                                 -16.368298403643 	(obj:0)
a1,3                              9.6819755294672e-09 	(obj:0)
z1,4                                 -35.668510799802 	(obj:0)
z1,5                                -11.8189897380053 	(obj:0)
a1,5                             1.48080387268002e-07 	(obj:0)
z1,6                                -11.8115660763278 	(obj:0)
a1,6                             1.30263336792572e-09 	(obj:0)
z1,7                                 -31.952221286436 	(obj:0)
z1,8                                -6.80250076239108 	(obj:0)
a1,8                              0.00110650253743677 	(obj:0)
z1,9                                -53.8566298360651 	(obj:0)
